&CONTROL
calculation = "vc-relax"
nstep          = 100
etot_conv_thr = 1.0d-6
forc_conv_thr = 1.0d-6
disk_io = 'none'
pseudo_dir = '/opt/QEpot/SSSP_precision_pseudos/'
/
!controlend

&SYSTEM
occupations = "smearing"
nat = 8
smearing = "gaussian"
ntyp = 2
ibrav = 0
ecutwfc = 90
ecutrho = 1080
nosym = .TRUE.
degauss = 1.00000e-02
nspin = 2
!systemend
/

&ELECTRONS
startingwfc = "atomic+random"
mixing_beta = 4.00000e-01
electron_maxstep = 1000
conv_thr = 1.00000e-08
startingpot = "atomic"
/
!electronsend


&IONS
ion_dynamics = "bfgs"
!ion_temperature = "rescaling"
!tempw = 0
/
!ionsend

&CELL
press_conv_thr = 0
cell_dynamics = "bfgs"
cell_dofree = "xyz"
!press = 0
/
!cellend

K_POINTS {automatic}
10 10 10 0 0 0
ATOMIC_SPECIES
ATOMIC_POSITIONS {angstrom}
CELL_PARAMETERS {angstrom}
!End