&CONTROL
calculation = "vc-relax"
wf_collect = .FALSE.
nstep          = 100
disk_io = nowf
pseudo_dir = '/opt/QEpot/SSSP_precision_pseudos/'
/

&SYSTEM
occupations = "smearing"
smearing = "gaussian"
nat = 0
ntyp = 10
ecutwfc = 4.89484e+01
ecutrho = 4.40535e+02
nosym = .TRUE.
degauss = 1.00000e-02
ibrav = 0
nspin = 2
starting_magnetization(10) =  2.00000e-01
starting_magnetization(9) =  2.00000e-01
starting_magnetization(8) =  2.00000e-01
starting_magnetization(7) =  2.00000e-01
starting_magnetization(6) =  2.00000e-01
starting_magnetization(5) =  2.00000e-01
starting_magnetization(4) =  2.00000e-01
starting_magnetization(3) =  2.00000e-01
starting_magnetization(2) =  2.00000e-01
starting_magnetization(1) =  2.00000e-01
!systemend
/

&ELECTRONS
startingwfc = "atomic+random"
mixing_beta  =  4.00000e-01
electron_maxstep = 1000
conv_thr = 1.00000e-08
startingpot = "atomic"
/

&IONS
ion_dynamics = "bfgs"
!ion_temperature = "rescaling"
!tempw = 0
/

&CELL
press_conv_thr = 0
cell_dynamics = "bfgs"
!press = 0
/

K_POINTS {automatic}
10 10 10 0 0 0
ATOMIC_SPECIES
Co  58.933  Co_pbe_v1.2.uspp.F.UPF
Cr  51.9961  cr_pbe_v1.5.uspp.F.UPF
Fe  55.845  Fe.pbe-spn-kjpaw_psl.0.2.1.UPF
Hf  178.49  Hf-sp.oncvpsp.upf
Mn  54.938  mn_pbe_v1.5.uspp.F.UPF
Nb  92.90638  Nb.pbe-spn-kjpaw_psl.0.3.0.UPF
Ni  58.693  ni_pbe_v1.4.uspp.F.UPF
Ta  180.94788  Ta_pbe_v1.uspp.F.UPF
Ti  47.867  Ti_pbe_v1.4.uspp.F.UPF
Zr  91.224  Zr_pbe_v1.uspp.F.UPF
ATOMIC_POSITIONS {angstrom}
CELL_PARAMETERS {angstrom}
!End