&CONTROL
pseudo_dir = '/opt/QEpot/SSSP_precision_pseudos/'
calculation = "vc-relax"
/

&SYSTEM
occupations = "smearing"
ecutwfc = 4.89484e+01
nat = 0
smearing = "gaussian"
ntyp = 10
ibrav = 0
ecutrho = 4.40535e+02
nosym = .TRUE
degauss = 1.00000e-02
/

&ELECTRONS
startingwfc = "atomic+random"
mixing_beta = 4.00000e-01
electron_maxstep = 200
conv_thr = 1.00000e-06
startingpot = "atomic"
/

&IONS
ion_dynamics = "bfgs"
!ion_temperature = "rescaling"
!tempw = 0
/

&CELL
press_conv_thr = 0
cell_dynamics = "bfgs"
!press = 0
/

K_POINTS {automatic}
10 10 10 0 0 0
ATOMIC_SPECIES
Al  26.981539  Al.pbe-n-kjpaw_psl.1.0.0.UPF
Mo  95.95  Mo_ONCV_PBE-1.0.oncvpsp.upf
Nb  92.90638  Nb.pbe-spn-kjpaw_psl.0.3.0.UPF
Ta  180.94788  Ta_pbe_v1.uspp.F.UPF
Ti  47.867  Ti_pbe_v1.4.uspp.F.UPF
Zr  91.224  Zr_pbe_v1.uspp.F.UPF
ATOMIC_POSITIONS {angstrom}
CELL_PARAMETERS {angstrom}
#End